% seed = 0

mint = 23;
% maxt = 80;

nActs = 32;
dur = [0,4,3,1,1,3,2,3,2,1,4,5,3,5,4,1,2,2,3,2,3,3,2,3,2,3,3,2,2,4,2,0];

nSkills = 15;
sreq = [| 0,0,0,0,0,0,0,0,0,0,0,0,0,0,0,
	| 0,0,0,0,0,0,0,0,0,0,1,0,0,0,0,
	| 0,0,0,1,0,0,0,0,0,1,1,1,1,1,0,
	| 0,0,0,0,0,1,0,0,1,0,0,0,0,0,0,
	| 0,0,0,0,1,0,0,0,0,0,0,0,0,0,0,
	| 0,0,1,1,0,1,0,0,0,0,0,2,0,0,0,
	| 0,0,0,0,0,0,1,0,0,0,0,0,0,1,0,
	| 0,0,0,0,0,0,0,1,0,0,0,1,0,1,0,
	| 0,0,0,0,0,0,0,1,1,0,0,0,0,1,0,
	| 0,1,0,0,1,0,0,1,0,0,0,0,0,0,1,
	| 0,0,1,0,0,0,0,0,0,2,0,1,1,2,0,
	| 1,0,0,0,0,1,0,0,0,0,0,1,0,1,0,
	| 0,0,1,0,1,1,1,0,0,1,0,0,0,0,0,
	| 0,0,1,0,0,0,0,0,0,0,0,1,0,0,0,
	| 0,0,0,0,0,0,0,2,0,0,0,1,1,0,0,
	| 0,0,0,0,0,0,0,0,1,0,0,0,1,0,0,
	| 0,0,0,0,0,1,0,0,0,0,0,0,0,0,0,
	| 0,0,0,0,0,1,0,1,0,0,1,1,0,2,0,
	| 0,0,0,1,0,0,0,0,0,0,1,1,0,0,0,
	| 0,0,0,0,0,1,0,1,0,0,0,0,0,1,0,
	| 1,0,0,0,1,0,0,0,0,0,1,1,0,1,0,
	| 0,0,0,0,1,1,0,1,1,0,0,1,0,1,0,
	| 0,1,0,0,0,1,0,0,0,1,0,1,0,1,0,
	| 0,0,1,0,0,0,0,0,1,0,1,1,0,0,0,
	| 0,0,1,0,1,0,0,0,0,0,0,2,0,0,0,
	| 0,0,0,1,0,1,0,1,1,0,0,1,0,1,0,
	| 0,0,0,0,0,0,0,1,0,0,0,0,1,0,0,
	| 1,0,0,0,0,1,1,0,0,0,1,0,0,0,0,
	| 0,0,1,1,0,1,0,0,0,0,2,1,0,0,0,
	| 0,0,1,0,0,1,0,1,1,0,2,0,0,1,0,
	| 0,0,0,0,0,0,0,0,0,0,0,1,0,0,0,
	| 0,0,0,0,0,0,0,0,0,0,0,0,0,0,0, |];

% SumOfsreq = 114;

nResources = 22;
mastery = [| false,false,false,false,false,false,false,false,true,true,true,true,false,false,false,
	| false,false,false,false,false,false,false,false,false,false,true,true,false,false,false,
	| false,false,false,false,false,false,false,false,false,true,true,true,false,false,false,
	| false,false,false,true,true,true,false,true,true,false,false,false,true,true,true,
	| false,false,false,false,false,false,true,true,true,false,false,false,false,false,false,
	| true,true,true,false,false,false,false,false,false,false,false,false,false,false,false,
	| false,false,false,false,false,false,true,true,true,false,false,false,false,false,false,
	| false,false,false,false,false,false,false,false,false,false,false,true,false,false,false,
	| false,false,true,false,false,false,false,false,false,false,false,false,false,false,false,
	| false,false,false,false,false,false,false,false,false,false,false,true,false,false,false,
	| false,false,false,true,true,true,true,true,true,false,false,false,false,true,true,
	| false,false,false,false,false,false,false,false,false,false,false,false,false,true,true,
	| false,false,false,false,true,true,false,false,false,false,false,false,false,false,false,
	| false,false,false,false,false,false,false,true,true,false,false,false,true,true,true,
	| false,false,false,false,false,false,false,false,false,false,false,false,false,true,true,
	| false,false,false,true,true,true,false,false,false,false,false,false,false,false,false,
	| false,false,false,false,false,false,false,false,false,true,true,true,false,false,false,
	| false,false,false,false,false,false,false,false,false,false,false,true,false,false,false,
	| false,false,false,false,false,true,false,false,false,false,false,false,false,false,false,
	| false,false,false,false,false,false,false,false,false,false,false,false,true,true,true,
	| false,false,false,false,false,false,false,false,false,false,true,true,false,false,false,
	| false,false,false,false,false,false,false,false,false,false,true,true,false,false,false, |];

nPrecs = 48;
pred = [1,1,1,2,3,3,3,4,4,4,5,5,5,6,7,7,7,8,8,8,9,9,10,10,11,12,13,14,14,14,15,16,17,18,19,20,21,22,23,24,24,25,26,27,28,29,30,31];
succ = [2,3,4,25,13,5,6,9,14,15,16,7,8,31,17,11,28,18,12,30,10,27,17,12,14,24,30,26,21,22,20,19,21,23,31,22,25,29,27,25,31,29,27,29,30,32,32,32];

nUnrels = 293;
unpred = [2,2,2,2,2,2,2,2,2,2,2,2,2,2,2,2,2,2,2,2,2,2,2,2,2,2,2,3,3,3,3,3,4,4,4,4,4,4,4,4,4,4,4,4,5,5,5,5,5,5,6,6,6,6,6,6,6,6,6,6,6,6,6,6,6,6,6,6,6,6,6,6,6,6,7,7,7,7,7,7,7,7,7,7,7,7,7,8,8,8,8,8,8,8,8,8,8,8,8,8,8,9,9,9,9,9,9,9,9,9,9,9,9,9,10,10,10,10,10,10,10,10,10,10,10,10,10,10,11,11,11,11,11,11,11,11,11,11,11,11,11,12,12,12,12,12,12,12,12,12,12,12,12,12,12,12,13,13,13,13,13,13,13,13,13,13,13,13,13,13,13,13,13,14,14,14,14,14,14,14,14,14,14,14,15,15,15,15,15,15,15,15,15,15,15,15,15,16,16,16,16,16,16,16,16,16,16,16,16,16,17,17,17,17,17,17,17,17,17,17,17,18,18,18,18,18,18,18,18,18,18,19,19,19,19,19,19,19,19,19,19,19,20,20,20,20,20,20,20,20,20,21,21,21,21,21,21,21,21,22,22,22,22,22,22,22,22,23,23,23,23,23,23,24,24,24,24,25,25,25,25,25,26,26,26,27,27,27,28,28,29,29,30];
unsucc = [3,4,5,6,7,8,9,10,11,12,13,14,15,16,17,18,19,20,21,22,23,24,26,27,28,30,31,4,9,10,15,20,5,6,7,8,11,13,16,18,19,23,28,30,6,9,10,13,15,20,7,8,9,10,11,12,13,14,15,16,17,18,19,20,21,22,23,24,25,26,27,28,29,30,8,9,10,12,13,15,16,18,19,20,23,24,31,9,10,11,13,14,15,16,17,19,20,21,22,26,28,11,13,14,15,16,18,19,20,22,23,26,28,30,11,13,14,15,16,18,19,20,22,23,26,27,28,30,12,13,15,16,17,18,19,20,23,24,28,30,31,13,14,15,16,17,18,19,20,21,22,23,26,27,28,30,14,15,16,17,18,19,20,21,22,23,24,25,26,27,28,29,31,15,16,17,18,19,20,23,24,28,30,31,16,17,18,19,21,23,24,25,26,27,28,30,31,17,18,20,21,22,23,24,25,26,27,28,29,30,18,19,20,22,23,24,26,27,28,30,31,19,20,21,22,24,25,26,28,30,31,20,21,22,23,24,25,26,27,28,29,30,21,23,24,25,26,27,28,30,31,22,23,24,26,27,28,30,31,23,24,25,26,27,28,30,31,24,25,26,28,30,31,26,27,28,30,26,27,28,30,31,28,30,31,28,30,31,29,31,30,31,31];

USEFUL_RES = [{},
	{1,2,3,17,21,22},
	{1,2,3,4,8,10,11,12,14,15,16,17,18,20,21,22},
	{1,4,5,7,11,13,14,16,19},
	{4,11,13,16},
	{1,2,3,4,6,8,9,10,11,13,16,17,18,19,21,22},
	{4,5,7,11,12,14,15,20},
	{1,2,3,4,5,7,8,10,11,12,14,15,17,18,20,21,22},
	{1,4,5,7,11,12,14,15,20},
	{4,5,6,7,11,12,13,14,15,16,20},
	{1,2,3,4,6,8,9,10,11,12,14,15,17,18,20,21,22},
	{1,2,3,4,6,8,10,11,12,13,14,15,16,17,18,19,20,21,22},
	{1,3,4,5,6,7,9,11,13,16,17,19},
	{1,2,3,6,8,9,10,17,18,21,22},
	{1,2,3,4,5,7,8,10,11,14,17,18,20,21,22},
	{1,4,5,7,11,14,20},
	{4,11,13,16,19},
	{1,2,3,4,5,7,8,10,11,12,13,14,15,16,17,18,19,20,21,22},
	{1,2,3,4,8,10,11,16,17,18,21,22},
	{4,5,7,11,12,13,14,15,16,19,20},
	{1,2,3,4,6,8,10,11,12,13,14,15,16,17,18,20,21,22},
	{1,2,3,4,5,7,8,10,11,12,13,14,15,16,17,18,19,20,21,22},
	{1,2,3,4,6,8,10,11,12,13,14,15,16,17,18,19,20,21,22},
	{1,2,3,4,5,6,7,8,9,10,11,14,17,18,21,22},
	{1,2,3,4,6,8,9,10,11,13,16,17,18,21,22},
	{1,2,3,4,5,7,8,10,11,12,13,14,15,16,17,18,19,20,21,22},
	{4,5,7,11,14,20},
	{1,2,3,4,5,6,7,11,13,16,17,19,21,22},
	{1,2,3,4,6,8,9,10,11,13,16,17,18,19,21,22},
	{1,2,3,4,5,6,7,9,11,12,13,14,15,16,17,19,20,21,22},
	{1,2,3,8,10,17,18,21,22},
	{}];

POTENTIAL_ACT = [{2,3,4,6,8,9,11,12,13,14,15,16,18,19,21,22,23,24,25,26,28,29,30,31},
	{2,3,6,8,11,12,14,15,18,19,21,22,23,24,25,26,28,29,30,31},
	{2,3,6,8,11,12,13,14,15,18,19,21,22,23,24,25,26,28,29,30,31},
	{3,4,5,6,7,8,9,10,11,12,13,15,16,17,18,19,20,21,22,23,24,25,26,27,28,29,30},
	{4,7,8,9,10,13,15,16,18,20,22,24,26,27,28,30},
	{6,10,11,12,13,14,21,23,24,25,28,29,30},
	{4,7,8,9,10,13,15,16,18,20,22,24,26,27,28,30},
	{3,6,8,11,12,14,15,18,19,21,22,23,24,25,26,29,31},
	{6,11,13,14,24,25,29,30},
	{3,6,8,11,12,14,15,18,19,21,22,23,24,25,26,29,31},
	{3,4,5,6,7,8,9,10,11,12,13,15,16,17,18,19,20,21,22,23,24,25,26,27,28,29,30},
	{3,7,8,9,10,11,12,18,20,21,22,23,26,30},
	{4,5,6,10,12,13,17,18,20,21,22,23,25,26,28,29,30},
	{3,4,7,8,9,10,11,12,15,16,18,20,21,22,23,24,26,27,30},
	{3,7,8,9,10,11,12,18,20,21,22,23,26,30},
	{3,4,5,6,10,12,13,17,18,19,20,21,22,23,25,26,28,29,30},
	{2,3,6,8,11,12,13,14,15,18,19,21,22,23,24,25,26,28,29,30,31},
	{3,6,8,11,12,14,15,18,19,21,22,23,24,25,26,29,31},
	{4,6,12,13,17,18,20,22,23,26,28,29,30},
	{3,7,8,9,10,11,12,15,16,18,20,21,22,23,26,27,30},
	{2,3,6,8,11,12,14,15,18,19,21,22,23,24,25,26,28,29,30,31},
	{2,3,6,8,11,12,14,15,18,19,21,22,23,24,25,26,28,29,30,31}];
